52 52 52 52 52 28 28 28 52 28 52 28 52 52 28 52 52 28 28 52 52 52 52 52 52 52 28 28 28 28 52 52 52 28 28 28 52 28 52 28 28 28 28 28 52 52 52 28 52 52 52 28 28 52 52 52 28 52 28 28 28 52 52 52 52 52 28 28 28 52 52 28 52 52 28 28 28 52 28 52 28 28 28 52 52 52 28 52 52 28 52 52 52 28 28 52 52 28 52 52 52 28 28 28 28 28 28 28 28 52 28 28 52 28 52 28 52 28 52 28 28 28 52 28 28 28 52 52 28 28 52 28 52 52 28 52 52 52 52 52 28 52 28 52 52 52 52 52 52 28 52 28 28 52 28 28 52 52 52 52 52 28 52 28 52 28 52 52 52 52 28 52 28 28 28 28 28 52 52 52 52 28 52 52 52 52 52 28 28 28 28 28 52 52 28 28 52 28 52 28 52 28 52 52 28 52 52 28 28 28 28 52 52 52 28 28 52 52 52 52 28 52 52 52 28 28 52 28 28 52 28 52 52 28 28 52 52 28 28 28 28 28 52 52 52 28 28 28 52 52 28 52 28 52 28 28 52 28 28 52 52 52 28 28 52 52 52 28 52 52 28 52 52 28 52 52 28 52 52 52 28 52 52 28 52 52 28 28 52 52 28 28 28 28 28 52 52 28 52 28 52 28 28 52 28 52 28 28 28 52 52 28 52 28 28 28 28 28 28 52 52 28 28 52 52 28 28 28 28 28 52 28 28 52 52 28 28 52 28 28 28 52 28 52 28 28 52 28 28 28 52 28 28 52 52 52 28 28 28 28 28 52 28 28 28 52 28 28 28 28 28 52 52 28 28 52 28 28 52 28 28 52 28 28 28 28 28 28 28 28 52 28 52 52 28 52 52 28 52 52 28 52 28 52 52 52 52 52 52 28 52 52 52 28 52 28 28 52 28 28 52 52 28 28 52 28 52 28 28 28 52 28 52 28 52 28 52 28 52 28 52 52 52 28 52 28 28 52 28 52 52 52 28 52 28 52 52 52 52 52 28 52 52 52 52 28 28 28 52 52 28 28 28 52 28 52 52 52 28 52 28 52 52 28 28 52 28 52 28 52 28 28 28 52 28 52 28 28 52 52 52 52 52 28 28 52 52 28 28 28 52 28 52 28 52 28 52 52 52 28 28 28 28 52 52 28 28 52 28 28 28 28 52 52 28 28 52 52 28 52 52 52 28 52 28 52 52 52 28 28 52 28 28 28 52 28 28 28 52 52 28 28 52 52 52 52 52 28 28 52 28 28 52 28 52 52 52 28 28 52 28 28 52 52 28 52 52 28 52 28 52 52 28 28 28 28 52 28 28 28 52 28 28 28 28 52 52 52 52 28 28 52 28 28 28 28 52 52 28 28 28 28 52 28 28 52 28 28 52 52 28 52 52 28 52 28 52 52 52 28 52 28 52 52 28 28 52 52 52 52 52 52 52 28 28 28 52 28 28 52 52 28 28 52 28 52 52 52 28 28 52 52 28 28 28 28 28 52 52 28 52 28 52 28 28 52 28 28 28 28 52 52 28 52 28 28 28 52 52 52 28 28 28 28 52 52 52 52 28 28 52 52 52 52 28 52 28 28 52 28 52 28 28 52 52 28 28 28 28 52 52 28 28 52 28 52 28 52 28 52 28 28 28 52 52 28 28 52 52 28 28 28 28 28 52 28 28 52 28 28 52 52 28 52 28 52 28 52 28 28 28 28 28 28 52 52 52 28 52 28 28 52 28 28 52 52 28 52 52 28 28 28 52 28 52 28 52 52 52 28 52 52 28 28 52 28 52 28 28 28 28 28 52 28 28 28 28 52 28 52 52 28 52 52 28 28 52 28 52 28 28 28 52 28 28 28 28 28 52 28 28 52 28 28 28 52 28 28 28 28 52 52 28 28 28 52 28 52 52 52 52 52 52 28 52 28 52 28 28 28 28 28 52 52 28 52 28 52 52 28 52 28 52 28 28 28 52 28 52 28 52 52 52 52 52 28 52 28 28 52 28 52 52 28 28 28 52 28 52 52 28 28 52 52 28 28 52 52 28 52 52 28 28 28 52 52 52 28 28 52 52 28 28 28 28 28 28 28 28 52 52 28 28 28 28 28 28 52 28 52 28 52 52 28 28 28 28 52 28 28 28 52 28 52 52 52 52 28 52 28 52 28 28 52 28 28 28 52 28 28 28 28 52 52 52 52 52 52 28 52 52 52 28 52 28 52 28 52 52 52 